
  22   10
  10   10   10   10   10   10   10   10   10   10

   0   0   0   0   0   0   0   0   0   0   0   4 2 4 7 8 
   5  10  10  10  10  10  10  10  10  10  10   2 5 3 
   7  10  10  10  10  10  10  10  10  10  10   2 13 6 
   8  10  10  10  10  10  10  10  10  10  10   2 13 6 
   2  10  10  10  10  10  10  10  10  10  10   3 13 11 10 
   1  10  10  10  10  10  10  10  10  10  10   3 12 11 9 
   3  10  10  10  10  10  10  10  10  10  10   2 12 11 
   9  10  10  10  10  10  10  10  10  10  10   2 14 10 
   5  10  10  10  10  10  10  10  10  10  10   5 21 17 16 15 14 
  10  10  10  10  10  10  10  10  10  10  10   2 20 12 
   7  10  10  10  10  10  10  10  10  10  10   3 21 15 14 
   5  10  10  10  10  10  10  10  10  10  10   3 21 17 16 
   1  10  10  10  10  10  10  10  10  10  10   2 20 16 
   9  10  10  10  10  10  10  10  10  10  10   3 20 19 18 
   4  10  10  10  10  10  10  10  10  10  10   3 20 19 18 
   5  10  10  10  10  10  10  10  10  10  10   2 19 18 
   5  10  10  10  10  10  10  10  10  10  10   1 18 
   3  10  10  10  10  10  10  10  10  10  10   1 22
   8  10  10  10  10  10  10  10  10  10  10   1 22
   5  10  10  10  10  10  10  10  10  10  10   1 22
  10  10  10  10  10  10  10  10  10  10  10   1 22
   0   0   0   0   0   0   0   0   0   0   0   0 
